# freeze_core true opt calculation


memory 10 gb

molecule A24_5_Dimer {
0 1
 N    -0.049981290000    -1.587093230000     0.000000000000
 H     0.122962650000    -2.168460180000     0.811059760000
 H     0.122962650000    -2.168460180000    -0.811059760000
 H     0.659885800000    -0.862352980000     0.000000000000
--
 N     0.049981290000     1.587093230000     0.000000000000
 H    -0.122962650000     2.168460180000     0.811059760000
 H    -0.659885800000     0.862352980000     0.000000000000
 H    -0.122962650000     2.168460180000    -0.811059760000
}

set {
        freeze_core X
        mp2_type        df
}

energy('MP2/X')
