
memory 60 GB
molecule mol {
0 1

  H            2.76229205      -5.11251041       3.12588858 
  H           -1.06693181     -11.09728061      -2.94829590 
  H           -2.58493558      -6.71462022      -2.79515438 
  H            4.28029581      -9.49517080       2.97274707 
  H           -0.61306684      -3.65103024       0.24708547 
  H            2.30842707     -12.55876078      -0.06949279 
  C            1.92299097      -6.39953863       1.79394347 
  C           -0.22763074      -9.81025240      -1.61635079 
  C           -1.07531086      -7.30918097      -1.53270206 
  C            2.77067109      -8.90061005       1.71029474 
  C            0.00000000      -5.62518555       0.17759268 
  C            1.69536023     -10.58460547       0.00000000 

units=au
symmetry c1
}

set {
freeze_core true
scf_type df
mp2_type df
}

energy('mp2/BASISSET')

print_variables()
